NAME: random86
TYPE: TSP
DIMENSION: 86
EDGE_WEIGHT_TYPE: EXPLICIT
EDGE_WEIGHT_FORMAT: FULL_MATRIX
EDGE_WEIGHT_SECTION
0 1270 1270 1270 1270 1270 1270 1270 11 1270 1270 1270 1270 1270 43 1270 7 25 1270 1270 1270 1270 1270 1270 1270 1270 1270 1270 7 1270 11 1270 1270 1270 1270 1270 1270 8 1270 23 24 15 1270 1270 18 1270 1270 1270 1270 19 1270 15 1270 1270 1270 1270 1270 1270 1270 1270 22 1270 1270 22 74 1270 1270 22 1270 1270 1270 1270 1270 1270 3 1270 1270 1270 1270 1270 1270 1270 1270 1270 1270 1270
1270 0 12 1270 1270 13 1270 1270 1270 1270 15 1270 1270 2 1270 1270 1270 1270 1270 1270 1270 1270 1270 29 1270 1270 1270 1270 1270 1270 60 1270 1270 1270 1270 1270 1270 1270 1270 1270 32 1270 1270 1270 37 1270 1270 1270 1270 64 1270 1270 1270 1270 9 1270 1270 1270 1270 1270 1270 1270 1270 38 23 1270 1270 1270 1270 1270 5 2 1270 3 1270 1270 1270 1270 17 33 1270 1270 1270 15 21 1270
1270 12 0 1270 1270 18 1270 1270 1270 1270 6 1270 30 10 1270 12 1270 1270 1270 1270 1270 1270 1270 19 1270 1270 1270 10 1270 1270 1270 1270 1270 24 1270 1270 1270 38 1270 24 25 1270 1270 1270 29 1270 1270 1270 1270 57 1270 1270 1270 1270 13 1270 1270 12 1270 1270 1270 1270 1270 32 34 1270 1270 34 1270 1270 8 11 1270 13 1270 1270 24 1270 20 1270 1270 1270 1270 16 10 1270
1270 1270 1270 0 1270 1270 1270 1270 37 1270 1270 1270 17 1270 37 1270 1270 20 1270 27 1270 1270 1270 1270 1270 13 1270 1270 1270 1270 1270 1270 9 1270 1270 1270 1270 1270 21 32 1270 1270 8 8 1270 16 1270 17 1270 1270 1270 1270 29 1270 1270 1270 1270 34 1270 1270 1270 20 1270 1270 1270 23 1270 23 1270 1270 1270 1270 1270 1270 1270 10 20 1270 1270 1270 12 1270 22 1270 1270 14
1270 1270 1270 1270 0 1270 29 1270 1270 1270 1270 21 1270 1270 1270 1270 1270 1270 43 29 1270 9 18 1270 1270 28 1270 1270 1270 1270 1270 1270 1270 1270 5 30 29 1270 20 1270 1270 1270 1270 21 1270 12 18 1270 1270 1270 1270 1270 1270 18 1270 17 1270 1270 20 14 1270 9 1270 1270 1270 21 22 1270 1270 10 1270 1270 24 1270 1270 1270 1270 1270 1270 1270 1270 1270 1270 1270 1270 19
1270 13 18 1270 1270 0 1270 1270 1270 15 17 1270 1270 14 1270 20 1270 1270 1270 1270 1270 1270 1270 1270 1270 1270 1270 20 1270 41 1270 1270 1270 16 1270 1270 1270 1270 1270 1270 1270 1270 1270 1270 1270 1270 1270 1270 1270 1270 1270 1270 1270 1270 23 1270 24 1270 1270 1270 1270 1270 38 49 26 1270 1270 1270 1270 1270 17 11 1270 10 1270 1270 1270 1270 4 20 1270 1270 1270 6 23 1270
1270 1270 1270 1270 29 1270 0 1270 1270 1270 1270 1270 1270 1270 1270 1270 1270 1270 23 1270 1270 1270 1270 1270 4 1270 1270 1270 1270 27 1270 1270 1270 1270 27 59 1270 1270 1270 1270 1270 1270 1270 1270 1270 1270 1270 25 1270 1270 1270 1270 23 12 1270 22 1270 1270 1270 18 1270 26 20 1270 1270 18 1270 1270 1270 30 1270 1270 8 1270 1270 1270 1270 20 1270 43 1270 1270 1270 1270 1270 27
1270 1270 1270 1270 1270 1270 1270 0 53 1270 1270 22 1270 1270 22 1270 1270 45 1270 16 1270 1270 1270 1270 1270 30 3 1270 1270 1270 1270 3 35 1270 1270 1270 16 1270 26 1270 1270 1270 42 1270 1270 1270 1270 1270 18 1270 9 1270 1270 1270 1270 1270 1270 1270 1270 1270 1270 1270 1270 1270 1270 1270 21 1270 3 1270 1270 1270 1270 1270 1270 1270 1270 1270 1270 1270 1270 1270 24 1270 1270 1270
11 1270 1270 37 1270 1270 1270 53 0 1270 1270 1270 1270 1270 32 1270 11 18 1270 46 1270 1270 1270 30 1270 36 1270 1270 14 1270 20 1270 35 1270 1270 1270 1270 15 1270 25 1270 20 29 1270 26 1270 1270 1270 1270 27 1270 21 1270 1270 1270 1270 1270 1270 1270 1270 29 1270 1270 31 1270 1270 1270 19 1270 1270 1270 1270 1270 1270 10 1270 36 1270 1270 1270 38 1270 33 1270 1270 1270
1270 1270 1270 1270 1270 15 1270 1270 1270 0 24 1270 33 1270 1270 22 1270 1270 1270 1270 23 1270 1270 1270 38 1270 1270 24 1270 26 1270 1270 1270 7 1270 1270 1270 1270 1270 1270 1270 1270 1270 1270 1270 1270 1270 1270 1270 1270 1270 1270 1270 1270 1270 1270 12 1270 1270 1270 1270 1270 23 1270 40 1270 1270 1270 1270 1270 1270 26 1270 25 1270 1270 1270 1270 12 7 1270 21 1270 13 1270 1270
1270 15 6 1270 1270 17 1270 1270 1270 24 0 1270 25 14 1270 6 1270 1270 1270 1270 1270 1270 1270 21 1270 1270 1270 5 1270 1270 1270 1270 1270 19 1270 1270 1270 1270 1270 25 29 1270 1270 1270 33 1270 1270 1270 1270 1270 1270 1270 1270 1270 19 1270 24 6 1270 1270 1270 1270 1270 1270 38 1270 1270 1270 1270 1270 13 14 1270 16 1270 1270 21 1270 18 1270 1270 27 1270 13 6 1270
1270 1270 1270 1270 21 1270 1270 22 1270 1270 1270 0 1270 1270 1270 1270 1270 1270 1270 11 1270 23 4 1270 1270 21 21 1270 1270 1270 1270 1270 1270 1270 23 15 9 1270 9 1270 1270 1270 1270 1270 1270 1270 3 1270 20 1270 22 1270 1270 1270 1270 1270 1270 1270 4 1270 1270 1270 1270 1270 1270 1270 4 1270 1270 26 1270 1270 1270 1270 1270 1270 1270 1270 1270 1270 1270 1270 1270 1270 1270 1270
1270 1270 30 17 1270 1270 1270 1270 1270 33 25 1270 0 1270 1270 20 1270 29 1270 1270 16 1270 1270 29 32 1270 1270 21 42 1270 1270 1270 26 27 1270 1270 1270 1270 1270 29 1270 1270 21 23 1270 23 1270 12 1270 1270 1270 1270 15 28 1270 1270 23 19 1270 1270 1270 26 32 1270 1270 18 1270 27 1270 1270 1270 1270 1270 1270 1270 11 11 1270 1270 39 8 17 1270 32 21 16
1270 2 10 1270 1270 14 1270 1270 1270 1270 14 1270 1270 0 1270 20 1270 1270 1270 1270 1270 1270 1270 28 1270 1270 1270 19 1270 1270 1270 1270 1270 1270 1270 1270 1270 1270 1270 1270 31 1270 1270 1270 1270 1270 1270 1270 1270 1270 1270 1270 1270 1270 9 1270 1270 1270 1270 1270 1270 1270 1270 37 24 1270 1270 1270 1270 1270 3 3 1270 4 1270 1270 1270 1270 1270 1270 1270 1270 1270 15 19 1270
43 1270 1270 37 1270 1270 1270 22 32 1270 1270 1270 1270 1270 0 1270 41 30 1270 23 1270 1270 1270 1270 1270 25 25 1270 45 1270 50 25 29 1270 1270 1270 33 1270 31 50 1270 47 32 35 1270 1270 1270 1270 1270 57 30 49 1270 1270 1270 1270 1270 1270 1270 1270 55 1270 1270 1270 1270 1270 31 39 24 1270 1270 1270 1270 1270 42 1270 1270 1270 1270 1270 47 1270 16 1270 1270 1270
1270 1270 12 1270 1270 20 1270 1270 1270 22 6 1270 20 20 1270 0 1270 1270 1270 1270 23 1270 1270 22 1270 1270 1270 2 1270 43 1270 1270 1270 17 1270 1270 1270 1270 1270 1270 1270 1270 1270 1270 1270 1270 1270 31 1270 1270 1270 1270 24 1270 1270 1270 20 2 1270 1270 1270 1270 35 1270 1270 35 1270 32 1270 1270 1270 20 1270 21 1270 31 17 1270 20 29 23 22 1270 15 5 1270
7 1270 1270 1270 1270 1270 1270 1270 11 1270 1270 1270 1270 1270 41 1270 0 28 1270 1270 1270 1270 1270 1270 1270 1270 1270 1270 14 1270 9 1270 1270 1270 1270 1270 1270 15 1270 1270 1270 10 1270 1270 25 1270 1270 1270 1270 17 1270 10 1270 1270 1270 1270 1270 1270 1270 1270 18 1270 1270 28 81 1270 1270 27 1270 1270 1270 1270 1270 1270 9 1270 1270 1270 1270 1270 1270 1270 44 1270 1270 1270
25 1270 1270 20 1270 1270 1270 45 18 1270 1270 1270 29 1270 30 1270 28 0 1270 34 1270 1270 1270 1270 1270 21 47 1270 22 1270 1270 1270 18 1270 1270 1270 1270 23 33 21 1270 38 11 25 1270 1270 1270 1270 1270 1270 1270 39 1270 1270 1270 1270 1270 1270 1270 1270 46 1270 1270 1270 1270 1270 1270 9 47 1270 1270 1270 1270 1270 23 28 22 1270 1270 1270 21 1270 22 1270 1270 1270
1270 1270 1270 1270 43 1270 23 1270 1270 1270 1270 1270 1270 1270 1270 1270 1270 1270 0 1270 1270 41 1270 1270 26 1270 1270 1270 1270 37 1270 1270 1270 1270 44 68 1270 1270 1270 1270 1270 1270 1270 1270 1270 1270 1270 1270 1270 1270 1270 1270 46 32 1270 28 1270 1270 62 29 1270 1270 37 1270 1270 1270 1270 1270 1270 38 1270 1270 21 1270 1270 1270 1270 5 1270 59 1270 1270 1270 1270 1270 1270
1270 1270 1270 27 29 1270 1270 16 46 1270 1270 11 1270 1270 23 1270 1270 34 1270 0 1270 1270 12 1270 1270 15 16 1270 1270 1270 1270 17 20 1270 30 23 13 1270 10 1270 1270 65 28 21 1270 29 14 1270 24 1270 20 1270 1270 1270 1270 1270 1270 1270 15 1270 1270 1270 1270 1270 1270 1270 8 42 17 1270 1270 1270 1270 1270 1270 1270 1270 1270 1270 1270 1270 1270 13 1270 1270 34
1270 1270 1270 1270 1270 1270 1270 1270 1270 23 1270 1270 16 1270 1270 23 1270 1270 1270 1270 0 1270 1270 1270 21 1270 1270 1270 1270 27 1270 1270 1270 18 1270 1270 1270 1270 1270 1270 1270 1270 1270 1270 1270 1270 1270 17 1270 1270 1270 1270 3 24 1270 1270 11 23 1270 1270 1270 1270 16 1270 1270 17 1270 1270 1270 1270 1270 1270 1270 1270 1270 22 1270 42 1270 27 1270 2 1270 1270 1270 1270
1270 1270 1270 1270 9 1270 1270 1270 1270 1270 1270 23 1270 1270 1270 1270 1270 1270 41 1270 1270 0 22 1270 1270 1270 1270 1270 1270 1270 1270 1270 1270 1270 14 28 30 1270 26 1270 1270 1270 1270 1270 1270 1270 20 1270 36 1270 43 1270 1270 23 1270 13 1270 1270 21 14 1270 1270 1270 1270 1270 1270 26 1270 1270 3 1270 1270 25 1270 1270 1270 1270 1270 1270 1270 1270 1270 1270 1270 1270 1270
1270 1270 1270 1270 18 1270 1270 1270 1270 1270 1270 4 1270 1270 1270 1270 1270 1270 1270 12 1270 22 0 1270 1270 18 24 1270 1270 1270 1270 1270 1270 1270 20 19 13 1270 6 1270 1270 1270 1270 19 1270 21 4 1270 1270 1270 1270 1270 1270 35 1270 1270 1270 1270 6 32 1270 22 1270 1270 1270 1270 4 1270 1270 24 1270 1270 1270 1270 1270 1270 1270 1270 1270 1270 1270 1270 22 1270 1270 1270
1270 29 19 1270 1270 1270 1270 1270 30 1270 21 1270 29 28 1270 22 1270 1270 1270 1270 1270 1270 1270 0 1270 1270 1270 20 20 1270 35 1270 1270 1270 1270 1270 1270 20 1270 6 12 1270 30 1270 14 1270 1270 1270 1270 1270 1270 1270 1270 1270 25 1270 1270 20 1270 1270 1270 1270 1270 20 51 1270 1270 17 1270 1270 24 30 1270 1270 25 1270 18 1270 1270 1270 25 1270 1270 34 16 1270
1270 1270 1270 1270 1270 1270 4 1270 1270 38 1270 1270 32 1270 1270 1270 1270 1270 26 1270 21 1270 1270 1270 0 1270 1270 1270 1270 24 1270 1270 1270 1270 29 1270 1270 1270 1270 1270 1270 1270 1270 1270 1270 29 1270 24 1270 1270 1270 1270 20 13 1270 26 28 1270 1270 21 1270 27 16 1270 78 18 1270 1270 1270 1270 1270 1270 12 1270 1270 31 1270 22 49 39 1270 22 1270 1270 1270 27
1270 1270 1270 13 28 1270 1270 30 36 1270 1270 21 1270 1270 25 1270 1270 21 1270 15 1270 1270 18 1270 1270 0 31 1270 1270 1270 1270 1270 5 1270 26 1270 27 1270 12 1270 1270 1270 13 10 1270 22 1270 1270 1270 1270 1270 1270 1270 1270 1270 1270 1270 1270 1270 1270 1270 25 1270 1270 1270 1270 17 28 31 1270 1270 1270 1270 1270 1270 22 1270 1270 1270 1270 25 1270 9 1270 1270 24
1270 1270 1270 1270 1270 1270 1270 3 1270 1270 1270 21 1270 1270 25 1270 1270 47 1270 16 1270 1270 24 1270 1270 31 0 1270 1270 1270 1270 1 1270 1270 1270 21 13 1270 25 1270 1270 1270 1270 1270 1270 1270 1270 1270 15 1270 6 1270 1270 1270 1270 1270 1270 1270 22 1270 1270 1270 1270 1270 1270 1270 20 1270 1 1270 1270 1270 1270 1270 1270 1270 1270 1270 1270 1270 1270 1270 25 1270 1270 1270
1270 1270 10 1270 1270 20 1270 1270 1270 24 5 1270 21 19 1270 2 1270 1270 1270 1270 1270 1270 1270 20 1270 1270 1270 0 1270 1270 1270 1270 1270 18 1270 1270 1270 1270 1270 24 30 1270 1270 1270 1270 1270 1270 1270 1270 1270 1270 1270 26 1270 1270 1270 22 2 1270 1270 1270 1270 1270 1270 1270 1270 1270 1270 1270 1270 1270 19 1270 1270 1270 1270 16 1270 1270 1270 23 24 1270 15 3 1270
7 1270 1270 1270 1270 1270 1270 1270 14 1270 1270 1270 42 1270 45 1270 14 22 1270 1270 1270 1270 1270 20 1270 1270 1270 1270 0 1270 17 1270 1270 1270 1270 1270 1270 1 1270 16 18 22 33 1270 12 1270 1270 1270 1270 1270 1270 1270 1270 1270 1270 1270 1270 1270 1270 1270 1270 1270 1270 18 1270 1270 1270 17 1270 1270 1270 1270 1270 1270 5 1270 32 1270 1270 1270 36 1270 42 1270 36 1270
1270 1270 1270 1270 1270 41 27 1270 1270 26 1270 1270 1270 1270 1270 43 1270 1270 37 1270 27 1270 1270 1270 24 1270 1270 1270 1270 0 1270 1270 1270 28 1270 85 1270 1270 1270 1270 1270 1270 1270 1270 1270 1270 1270 41 1270 1270 1270 1270 28 37 1270 49 23 1270 1270 46 1270 1270 11 1270 64 37 1270 1270 1270 1270 1270 1270 35 51 1270 1270 1270 32 37 22 1270 26 1270 38 1270 1270
11 60 1270 1270 1270 1270 1270 1270 20 1270 1270 1270 1270 1270 50 1270 9 1270 1270 1270 1270 1270 1270 35 1270 1270 1270 1270 17 1270 0 1270 1270 1270 1270 1270 1270 16 1270 32 28 8 1270 1270 23 1270 1270 1270 1270 8 1270 6 1270 1270 53 1270 1270 1270 1270 1270 12 1270 1270 23 78 1270 1270 1270 1270 1270 1270 1270 1270 1270 13 1270 1270 1270 1270 1270 1270 1270 1270 1270 1270 1270
1270 1270 1270 1270 1270 1270 1270 3 1270 1270 1270 1270 1270 1270 25 1270 1270 1270 1270 17 1270 1270 1270 1270 1270 1270 1 1270 1270 1270 1270 0 1270 1270 1270 21 14 1270 1270 1270 1270 1270 1270 1270 1270 1270 1270 1270 15 1270 5 1270 1270 1270 1270 1270 1270 1270 1270 1270 1270 1270 1270 1270 1270 1270 20 1270 1 1270 1270 1270 1270 1270 1270 1270 1270 1270 1270 1270 1270 1270 1270 1270 1270 1270
1270 1270 1270 9 1270 1270 1270 35 35 1270 1270 1270 26 1270 29 1270 1270 18 1270 20 1270 1270 1270 1270 1270 5 1270 1270 1270 1270 1270 1270 0 1270 26 1270 1270 1270 16 1270 1270 1270 9 8 1270 20 1270 25 1270 1270 1270 1270 1270 1270 1270 1270 1270 1270 1270 1270 1270 1270 1270 1270 1270 1270 21 25 1270 1270 1270 1270 1270 1270 1270 18 27 1270 1270 1270 20 1270 13 1270 1270 20
1270 1270 24 1270 1270 16 1270 1270 1270 7 19 1270 27 1270 1270 17 1270 1270 1270 1270 18 1270 1270 1270 1270 1270 1270 18 1270 28 1270 1270 1270 0 1270 1270 1270 1270 1270 1270 1270 1270 1270 1270 1270 1270 1270 1270 1270 1270 1270 1270 21 1270 1270 1270 8 18 1270 1270 1270 1270 23 1270 42 1270 1270 1270 1270 1270 1270 24 1270 1270 1270 1270 1270 1270 13 13 1270 16 1270 11 22 1270
1270 1270 1270 1270 5 1270 27 1270 1270 1270 1270 23 1270 1270 1270 1270 1270 1270 44 30 1270 14 20 1270 29 26 1270 1270 1270 1270 1270 1270 26 1270 0 34 1270 1270 20 1270 1270 1270 1270 17 1270 7 21 19 1270 1270 1270 1270 31 15 1270 19 1270 1270 1270 15 1270 4 1270 1270 1270 17 24 1270 1270 15 1270 1270 23 1270 1270 20 1270 43 1270 1270 1270 1270 1270 1270 1270 14
1270 1270 1270 1270 30 1270 59 1270 1270 1270 1270 15 1270 1270 1270 1270 1270 1270 68 23 1270 28 19 1270 1270 1270 21 1270 1270 85 1270 21 1270 1270 34 0 10 1270 1270 1270 1270 1270 1270 1270 1270 1270 15 1270 9 1270 18 1270 1270 48 1270 40 1270 1270 13 42 1270 1270 1270 1270 1270 1270 19 1270 1270 30 1270 1270 52 1270 1270 1270 1270 69 1270 1270 1270 1270 1270 1270 1270 1270
1270 1270 1270 1270 29 1270 1270 16 1270 1270 1270 9 1270 1270 33 1270 1270 1270 1270 13 1270 30 13 1270 1270 27 13 1270 1270 1270 1270 14 1270 1270 1270 10 0 1270 17 1270 1270 1270 1270 31 1270 1270 12 1270 11 1270 13 1270 1270 1270 1270 43 1270 1270 9 1270 1270 1270 1270 1270 1270 1270 11 1270 15 33 1270 1270 1270 1270 1270 1270 1270 1270 1270 1270 1270 1270 26 1270 1270 1270
8 1270 38 1270 1270 1270 1270 1270 15 1270 1270 1270 1270 1270 1270 1270 15 23 1270 1270 1270 1270 1270 20 1270 1270 1270 1270 1 1270 16 1270 1270 1270 1270 1270 1270 0 1270 16 17 23 1270 1270 11 1270 1270 1270 1270 23 1270 21 1270 1270 41 1270 1270 1270 1270 1270 28 1270 1270 17 67 1270 1270 18 1270 1270 1270 1270 1270 1270 6 1270 32 1270 1270 1270 36 1270 1270 1270 36 1270
1270 1270 1270 21 20 1270 1270 26 1270 1270 1270 9 1270 1270 31 1270 1270 33 1270 10 1270 26 6 1270 1270 12 25 1270 1270 1270 1270 1270 16 1270 20 1270 17 1270 0 1270 1270 1270 25 14 1270 19 10 31 1270 1270 28 1270 1270 35 1270 36 1270 1270 12 34 1270 21 1270 1270 1270 33 6 1270 1270 28 1270 1270 43 1270 1270 26 1270 1270 1270 1270 1270 1270 17 1270 1270 25
23 1270 24 32 1270 1270 1270 1270 25 1270 25 1270 29 1270 50 1270 1270 21 1270 1270 1270 1270 1270 6 1270 1270 1270 24 16 1270 32 1270 1270 1270 1270 1270 1270 16 1270 0 14 1270 27 1270 13 1270 1270 1270 1270 38 1270 1270 1270 1270 31 1270 1270 24 1270 1270 1270 1270 1270 21 1270 1270 1270 12 1270 1270 1270 1270 1270 1270 21 35 18 1270 1270 1270 24 1270 1270 1270 20 1270
24 32 25 1270 1270 1270 1270 1270 1270 1270 29 1270 1270 31 1270 1270 1270 1270 1270 1270 1270 1270 1270 12 1270 1270 1270 30 18 1270 28 1270 1270 1270 1270 1270 1270 17 1270 14 0 1270 1270 1270 6 1270 1270 1270 1270 33 1270 1270 1270 1270 25 1270 1270 31 1270 1270 1270 1270 1270 8 51 1270 1270 25 1270 1270 27 33 1270 35 1270 1270 30 1270 1270 1270 1270 1270 1270 1270 27 1270
15 1270 1270 1270 1270 1270 1270 1270 20 1270 1270 1270 1270 1270 47 1270 10 38 1270 65 1270 1270 1270 1270 1270 1270 1270 1270 22 1270 8 1270 1270 1270 1270 1270 1270 23 1270 1270 1270 0 49 1270 1270 1270 1270 1270 1270 11 1270 3 1270 1270 1270 1270 1270 1270 1270 1270 8 1270 1270 32 1270 1270 1270 37 1270 1270 1270 1270 1270 1270 18 1270 1270 1270 1270 1270 1270 1270 52 1270 1270 1270
1270 1270 1270 8 1270 1270 1270 42 29 1270 1270 1270 21 1270 32 1270 1270 11 1270 28 1270 1270 1270 30 1270 13 1270 1270 33 1270 1270 1270 9 1270 1270 1270 1270 1270 25 27 1270 49 0 14 1270 1270 1270 25 1270 1270 1270 1270 1270 1270 1270 1270 1270 34 1270 1270 1270 1270 1270 1270 1270 1270 1270 16 1270 1270 1270 1270 1270 1270 34 17 19 1270 1270 1270 14 1270 19 1270 1270 22
1270 1270 1270 8 21 1270 1270 1270 1270 1270 1270 1270 23 1270 35 1270 1270 25 1270 21 1270 1270 19 1270 1270 10 1270 1270 1270 1270 1270 1270 8 1270 17 1270 31 1270 14 1270 1270 1270 14 0 1270 12 1270 19 1270 1270 1270 1270 32 29 1270 1270 1270 1270 1270 32 1270 15 1270 1270 1270 23 20 31 1270 1270 1270 1270 1270 1270 1270 13 28 1270 1270 1270 20 1270 19 1270 1270 14
18 37 29 1270 1270 1270 1270 1270 26 1270 33 1270 1270 1270 1270 1270 25 1270 1270 1270 1270 1270 1270 14 1270 1270 1270 1270 12 1270 23 1270 1270 1270 1270 1270 1270 11 1270 13 6 1270 1270 1270 0 1270 1270 1270 1270 28 1270 29 1270 1270 30 1270 1270 34 1270 1270 1270 1270 1270 8 56 1270 1270 22 1270 1270 32 1270 1270 1270 17 1270 31 1270 1270 1270 37 1270 1270 1270 30 1270
1270 1270 1270 16 12 1270 1270 1270 1270 1270 1270 1270 23 1270 1270 1270 1270 1270 1270 29 1270 1270 21 1270 29 22 1270 1270 1270 1270 1270 1270 20 1270 7 1270 1270 1270 19 1270 1270 1270 1270 12 1270 0 23 13 1270 1270 1270 1270 26 17 1270 1270 1270 1270 1270 21 1270 4 1270 1270 1270 14 24 1270 1270 22 1270 1270 27 1270 1270 13 1270 1270 1270 1270 24 1270 31 1270 1270 8
1270 1270 1270 1270 18 1270 1270 1270 1270 1270 1270 3 1270 1270 1270 1270 1270 1270 1270 14 1270 20 4 1270 1270 1270 1270 1270 1270 1270 1270 1270 1270 1270 21 15 12 1270 10 1270 1270 1270 1270 1270 1270 23 0 1270 21 1270 1270 1270 1270 1270 1270 32 1270 1270 3 32 1270 1270 1270 1270 1270 1270 7 1270 1270 22 1270 1270 1270 1270 1270 1270 1270 1270 1270 1270 1270 1270 1270 1270 1270 1270
1270 1270 1270 17 1270 1270 25 1270 1270 1270 1270 1270 12 1270 1270 31 1270 1270 1270 1270 17 1270 1270 1270 24 1270 1270 1270 1270 41 1270 1270 25 1270 19 1270 1270 1270 31 1270 1270 1270 25 19 1270 13 1270 0 1270 1270 1270 1270 14 17 1270 1270 27 30 1270 1270 1270 15 29 1270 1270 7 1270 36 1270 1270 1270 1270 1270 1270 1270 8 23 1270 1270 1270 17 18 1270 1270 1270 6
1270 1270 1270 1270 1270 1270 1270 18 1270 1270 1270 20 1270 1270 1270 1270 1270 1270 1270 24 1270 36 1270 1270 1270 1270 15 1270 1270 1270 1270 15 1270 1270 1270 9 11 1270 1270 1270 1270 1270 1270 1270 1270 1270 21 1270 0 1270 11 1270 1270 1270 1270 1270 1270 1270 19 1270 1270 1270 1270 1270 1270 1270 22 1270 16 39 1270 1270 1270 1270 1270 1270 1270 1270 1270 1270 1270 1270 1270 1270 1270 1270
19 64 57 1270 1270 1270 1270 1270 27 1270 1270 1270 1270 1270 57 1270 17 1270 1270 1270 1270 1270 1270 1270 1270 1270 1270 1270 1270 1270 8 1270 1270 1270 1270 1270 1270 23 1270 38 33 11 1270 1270 28 1270 1270 1270 1270 0 1270 8 1270 1270 56 1270 1270 1270 1270 1270 8 1270 1270 26 80 1270 1270 1270 1270 1270 59 1270 1270 67 21 1270 1270 1270 1270 1270 1270 1270 1270 1270 1270 1270
1270 1270 1270 1270 1270 1270 1270 9 1270 1270 1270 22 1270 1270 30 1270 1270 1270 1270 20 1270 43 1270 1270 1270 1270 6 1270 1270 1270 1270 5 1270 1270 1270 18 13 1270 28 1270 1270 1270 1270 1270 1270 1270 1270 1270 11 1270 0 1270 1270 1270 1270 1270 1270 1270 23 1270 1270 1270 1270 1270 1270 1270 22 1270 6 1270 1270 1270 1270 1270 1270 1270 1270 1270 1270 1270 1270 1270 1270 1270 1270 1270
15 1270 1270 1270 1270 1270 1270 1270 21 1270 1270 1270 1270 1270 49 1270 10 39 1270 1270 1270 1270 1270 1270 1270 1270 1270 1270 1270 1270 6 1270 1270 1270 1270 1270 1270 21 1270 1270 1270 3 1270 1270 29 1270 1270 1270 1270 8 1270 0 1270 1270 59 1270 1270 1270 1270 1270 7 1270 1270 29 84 1270 1270 1270 1270 1270 1270 1270 1270 1270 17 1270 1270 1270 1270 1270 1270 1270 1270 1270 1270 1270
1270 1270 1270 29 1270 1270 23 1270 1270 1270 1270 1270 15 1270 1270 24 1270 1270 46 1270 3 1270 1270 1270 20 1270 1270 26 1270 28 1270 1270 1270 21 31 1270 1270 1270 1270 1270 1270 1270 1270 32 1270 26 1270 14 1270 1270 1270 1270 0 22 1270 1270 14 24 1270 1270 1270 27 18 1270 62 14 1270 1270 1270 1270 1270 1270 29 1270 1270 20 25 41 1270 30 22 4 1270 1270 1270 20
1270 1270 1270 1270 18 1270 12 1270 1270 1270 1270 1270 28 1270 1270 1270 1270 1270 32 1270 24 23 35 1270 13 1270 1270 1270 1270 37 1270 1270 1270 1270 15 48 1270 1270 35 1270 1270 1270 1270 29 1270 17 1270 17 1270 1270 1270 1270 22 0 1270 17 1270 1270 1270 12 1270 14 27 1270 1270 10 1270 1270 1270 22 1270 1270 11 1270 1270 23 1270 29 1270 1270 1270 1270 1270 1270 1270 17
1270 9 13 1270 1270 23 1270 1270 1270 1270 19 1270 1270 9 1270 1270 1270 1270 1270 1270 1270 1270 1270 25 1270 1270 1270 1270 1270 1270 53 1270 1270 1270 1270 1270 1270 41 1270 31 25 1270 1270 1270 30 1270 1270 1270 1270 56 1270 59 1270 1270 0 1270 1270 1270 1270 1270 1270 1270 1270 30 26 1270 1270 1270 1270 1270 7 12 1270 13 1270 1270 36 1270 26 1270 1270 1270 1270 1270 23 1270
1270 1270 1270 1270 17 1270 22 1270 1270 1270 1270 1270 1270 1270 1270 1270 1270 1270 28 1270 1270 13 1270 1270 26 1270 1270 1270 1270 49 1270 1270 1270 1270 19 40 43 1270 36 1270 1270 1270 1270 1270 1270 1270 32 1270 1270 1270 1270 1270 1270 17 1270 0 1270 1270 34 6 1270 22 1270 1270 1270 1270 1270 1270 1270 10 1270 1270 14 1270 1270 1270 1270 29 1270 1270 1270 1270 1270 1270 1270 1270
1270 1270 1270 1270 1270 24 1270 1270 1270 12 24 1270 23 1270 1270 20 1270 1270 1270 1270 11 1270 1270 1270 28 1270 1270 22 1270 23 1270 1270 1270 8 1270 1270 1270 1270 1270 1270 1270 1270 1270 1270 1270 1270 1270 27 1270 1270 1270 1270 14 1270 1270 1270 0 21 1270 1270 1270 1270 16 1270 50 1270 1270 1270 1270 1270 1270 32 1270 1270 1270 1270 30 47 21 16 1270 9 1270 19 1270 1270
1270 1270 12 34 1270 1270 1270 1270 1270 1270 6 1270 19 1270 1270 2 1270 1270 1270 1270 23 1270 1270 20 1270 1270 1270 2 1270 1270 1270 1270 1270 18 1270 1270 1270 1270 1270 24 31 1270 34 1270 34 1270 1270 30 1270 1270 1270 1270 24 1270 1270 1270 21 0 1270 1270 1270 1270 36 1270 1270 1270 1270 30 1270 1270 1270 20 1270 1270 1270 30 15 1270 1270 1270 21 22 1270 16 4 1270
1270 1270 1270 1270 20 1270 1270 1270 1270 1270 1270 4 1270 1270 1270 1270 1270 1270 62 15 1270 21 6 1270 1270 1270 22 1270 1270 1270 1270 1270 1270 1270 1270 13 9 1270 12 1270 1270 1270 1270 1270 1270 1270 3 1270 19 1270 23 1270 1270 1270 1270 34 1270 1270 0 33 1270 1270 1270 1270 1270 1270 8 1270 1270 24 1270 1270 1270 1270 1270 1270 1270 1270 1270 1270 1270 1270 1270 1270 1270 1270
1270 1270 1270 1270 14 1270 18 1270 1270 1270 1270 1270 1270 1270 1270 1270 1270 1270 29 1270 1270 14 32 1270 21 1270 1270 1270 1270 46 1270 1270 1270 1270 15 42 1270 1270 34 1270 1270 1270 1270 32 1270 21 32 1270 1270 1270 1270 1270 1270 12 1270 6 1270 1270 33 0 1270 17 1270 1270 1270 21 36 1270 1270 12 1270 1270 11 1270 1270 1270 1270 29 1270 1270 1270 1270 1270 1270 1270 25
22 1270 1270 1270 1270 1270 1270 1270 29 1270 1270 1270 1270 1270 55 1270 18 46 1270 1270 1270 1270 1270 1270 1270 1270 1270 1270 1270 1270 12 1270 1270 1270 1270 1270 1270 28 1270 1270 1270 8 1270 1270 1270 1270 1270 1270 1270 8 1270 7 1270 1270 1270 1270 1270 1270 1270 1270 0 1270 1270 34 88 1270 1270 44 1270 1270 1270 1270 1270 1270 1270 1270 1270 1270 1270 1270 1270 1270 60 1270 1270 1270
1270 1270 1270 20 9 1270 26 1270 1270 1270 1270 1270 26 1270 1270 1270 1270 1270 1270 1270 1270 1270 22 1270 27 25 1270 1270 1270 1270 1270 1270 1270 1270 4 1270 1270 1270 21 1270 1270 1270 1270 15 1270 4 1270 15 1270 1270 1270 1270 27 14 1270 22 1270 1270 1270 17 1270 0 39 1270 1270 14 1270 1270 1270 19 1270 1270 24 1270 1270 16 1270 43 1270 1270 1270 1270 1270 1270 1270 10
1270 1270 1270 1270 1270 38 20 1270 1270 23 1270 1270 32 1270 1270 35 1270 1270 37 1270 16 1270 1270 1270 16 1270 1270 1270 1270 11 1270 1270 1270 23 1270 1270 1270 1270 1270 1270 1270 1270 1270 1270 1270 1270 1270 29 1270 1270 1270 1270 18 27 1270 1270 16 36 1270 1270 1270 39 0 1270 63 26 1270 1270 1270 1270 1270 1270 28 1270 1270 1270 1270 31 35 23 1270 16 1270 34 1270 35
22 38 32 1270 1270 49 1270 1270 31 1270 1270 1270 1270 37 1270 1270 28 1270 1270 1270 1270 1270 1270 20 1270 1270 1270 1270 18 1270 23 1270 1270 1270 1270 1270 1270 17 1270 21 8 32 1270 1270 8 1270 1270 1270 1270 26 1270 29 1270 1270 30 1270 1270 1270 1270 1270 34 1270 1270 0 54 1270 1270 30 1270 1270 33 40 1270 41 22 1270 37 1270 1270 1270 1270 1270 1270 1270 35 1270
74 23 34 1270 1270 26 1270 1270 1270 40 38 1270 1270 24 1270 1270 81 1270 1270 1270 1270 1270 1270 51 78 1270 1270 1270 1270 64 78 1270 1270 42 1270 1270 1270 67 1270 1270 51 1270 1270 1270 56 1270 1270 1270 1270 80 1270 84 62 1270 26 1270 50 1270 1270 1270 88 1270 63 54 0 1270 1270 1270 1270 1270 27 23 1270 22 1270 1270 1270 94 29 41 1270 58 1270 32 1270 1270
1270 1270 1270 23 21 1270 18 1270 1270 1270 1270 1270 18 1270 1270 35 1270 1270 1270 1270 17 1270 1270 1270 18 1270 1270 1270 1270 37 1270 1270 1270 1270 17 1270 1270 1270 33 1270 1270 1270 1270 23 1270 14 1270 7 1270 1270 1270 1270 14 10 1270 1270 1270 1270 1270 21 1270 14 26 1270 1270 0 1270 1270 1270 1270 1270 1270 20 1270 1270 14 1270 38 1270 43 23 18 1270 1270 1270 10
1270 1270 1270 1270 22 1270 1270 21 1270 1270 1270 4 1270 1270 31 1270 1270 1270 1270 8 1270 26 4 1270 1270 17 20 1270 1270 1270 1270 20 21 1270 24 19 11 1270 6 1270 1270 1270 1270 20 1270 24 7 1270 22 1270 22 1270 1270 1270 1270 1270 1270 1270 8 36 1270 1270 1270 1270 1270 1270 0 1270 21 1270 1270 1270 1270 1270 1270 1270 1270 1270 1270 1270 1270 1270 19 1270 1270 1270
22 1270 34 23 1270 1270 1270 1270 19 1270 1270 1270 27 1270 39 32 27 9 1270 42 1270 1270 1270 17 1270 28 1270 1270 17 1270 1270 1270 25 1270 1270 1270 1270 18 1270 12 25 37 16 31 22 1270 1270 36 1270 1270 1270 1270 1270 1270 1270 1270 1270 30 1270 1270 44 1270 1270 30 1270 1270 1270 0 1270 1270 1270 1270 1270 1270 19 29 17 1270 1270 1270 20 1270 31 1270 28 1270
1270 1270 1270 1270 1270 1270 1270 3 1270 1270 1270 1270 1270 1270 24 1270 1270 47 1270 17 1270 1270 1270 1270 1270 31 1 1270 1270 1270 1270 1 1270 1270 1270 1270 15 1270 1270 1270 1270 1270 1270 1270 1270 1270 1270 1270 16 1270 6 1270 1270 1270 1270 1270 1270 1270 1270 1270 1270 1270 1270 1270 1270 1270 21 1270 0 1270 1270 1270 1270 1270 1270 1270 1270 1270 1270 1270 1270 1270 26 1270 1270 1270
1270 1270 1270 1270 10 1270 30 1270 1270 1270 1270 26 1270 1270 1270 1270 1270 1270 38 1270 1270 3 24 1270 1270 1270 1270 1270 1270 1270 1270 1270 1270 1270 15 30 33 1270 28 1270 1270 1270 1270 1270 1270 22 22 1270 39 1270 1270 1270 1270 22 1270 10 1270 1270 24 12 1270 19 1270 1270 1270 1270 1270 1270 1270 0 1270 1270 23 1270 1270 1270 1270 39 1270 1270 1270 1270 1270 1270 1270 1270
1270 5 8 1270 1270 17 1270 1270 1270 1270 13 1270 1270 3 1270 1270 1270 1270 1270 1270 1270 1270 1270 24 1270 1270 1270 1270 1270 1270 1270 1270 1270 1270 1270 1270 1270 1270 1270 1270 27 1270 1270 1270 32 1270 1270 1270 1270 59 1270 1270 1270 1270 7 1270 1270 1270 1270 1270 1270 1270 1270 33 27 1270 1270 1270 1270 1270 0 6 1270 8 1270 1270 1270 1270 1270 1270 1270 1270 1270 18 18 1270
1270 2 11 1270 1270 11 1270 1270 1270 26 14 1270 1270 3 1270 20 1270 1270 1270 1270 1270 1270 1270 30 1270 1270 1270 19 1270 1270 1270 1270 1270 24 1270 1270 1270 1270 1270 1270 33 1270 1270 1270 1270 1270 1270 1270 1270 1270 1270 1270 1270 1270 12 1270 32 20 1270 1270 1270 1270 1270 40 23 1270 1270 1270 1270 1270 6 0 1270 2 1270 1270 35 1270 15 31 1270 1270 1270 13 20 1270
1270 1270 1270 1270 24 1270 8 1270 1270 1270 1270 1270 1270 1270 1270 1270 1270 1270 21 1270 1270 25 1270 1270 12 1270 1270 1270 1270 35 1270 1270 1270 1270 23 52 1270 1270 43 1270 1270 1270 1270 1270 1270 27 1270 1270 1270 1270 1270 1270 29 11 1270 14 1270 1270 1270 11 1270 24 28 1270 1270 20 1270 1270 1270 23 1270 1270 0 1270 1270 1270 1270 20 1270 1270 1270 1270 1270 1270 1270 1270
1270 3 13 1270 1270 10 1270 1270 1270 25 16 1270 1270 4 1270 21 1270 1270 1270 1270 1270 1270 1270 1270 1270 1270 1270 1270 1270 51 1270 1270 1270 1270 1270 1270 1270 1270 1270 1270 35 1270 1270 1270 1270 1270 1270 1270 1270 67 1270 1270 1270 1270 13 1270 1270 1270 1270 1270 1270 1270 1270 41 22 1270 1270 1270 1270 1270 8 2 1270 0 1270 1270 1270 1270 14 30 1270 1270 1270 13 1270 1270
3 1270 1270 1270 1270 1270 1270 1270 10 1270 1270 1270 1270 1270 42 1270 9 23 1270 1270 1270 1270 1270 25 1270 1270 1270 1270 5 1270 13 1270 1270 1270 1270 1270 1270 6 1270 21 1270 18 34 1270 17 1270 1270 1270 1270 21 1270 17 1270 1270 1270 1270 1270 1270 1270 1270 1270 1270 1270 22 1270 1270 1270 19 1270 1270 1270 1270 1270 1270 0 1270 36 1270 1270 1270 1270 1270 1270 1270 1270 1270
1270 1270 1270 10 1270 1270 1270 1270 1270 1270 1270 1270 11 1270 1270 31 1270 28 1270 1270 22 1270 1270 1270 31 22 1270 1270 1270 1270 1270 1270 18 1270 20 1270 1270 1270 26 35 1270 1270 17 13 1270 13 1270 8 1270 1270 1270 1270 20 23 1270 1270 1270 30 1270 1270 1270 16 1270 1270 1270 14 1270 29 1270 1270 1270 1270 1270 1270 1270 0 19 1270 1270 1270 11 23 31 1270 31 6
1270 1270 24 20 1270 1270 1270 1270 36 1270 21 1270 11 1270 1270 17 1270 22 1270 1270 1270 1270 1270 18 1270 1270 1270 16 32 1270 1270 1270 27 1270 1270 1270 1270 32 1270 18 30 1270 19 28 31 1270 1270 23 1270 1270 1270 1270 25 1270 36 1270 30 15 1270 1270 1270 1270 1270 37 1270 1270 1270 17 1270 1270 1270 35 1270 1270 36 19 0 1270 1270 1270 8 26 38 1270 15 25
1270 1270 1270 1270 1270 1270 20 1270 1270 1270 1270 1270 1270 1270 1270 1270 1270 1270 5 1270 42 1270 1270 1270 22 1270 1270 1270 1270 32 1270 1270 1270 1270 43 69 1270 1270 1270 1270 1270 1270 1270 1270 1270 1270 1270 1270 1270 1270 1270 1270 41 29 1270 29 47 1270 1270 29 1270 43 31 1270 94 38 1270 1270 1270 39 1270 1270 20 1270 1270 1270 1270 0 1270 53 1270 1270 1270 1270 1270 1270
1270 17 20 1270 1270 4 1270 1270 1270 12 18 1270 1270 1270 1270 20 1270 1270 1270 1270 1270 1270 1270 1270 49 1270 1270 1270 1270 37 1270 1270 1270 13 1270 1270 1270 1270 1270 1270 1270 1270 1270 1270 1270 1270 1270 1270 1270 1270 1270 1270 1270 1270 26 1270 21 1270 1270 1270 1270 1270 35 1270 29 1270 1270 1270 1270 1270 1270 15 1270 14 1270 1270 1270 1270 0 16 1270 29 1270 5 1270 1270
1270 33 1270 1270 1270 20 43 1270 1270 7 1270 1270 39 1270 1270 29 1270 1270 59 1270 27 1270 1270 1270 39 1270 1270 1270 1270 22 1270 1270 1270 13 1270 1270 1270 1270 1270 1270 1270 1270 1270 1270 1270 1270 1270 1270 1270 1270 1270 1270 30 1270 1270 1270 16 1270 1270 1270 1270 1270 23 1270 41 43 1270 1270 1270 1270 1270 31 1270 30 1270 1270 1270 53 16 0 1270 26 1270 19 1270 1270
1270 1270 1270 12 1270 1270 1270 1270 38 1270 1270 1270 8 1270 47 23 1270 21 1270 1270 1270 1270 1270 25 1270 25 1270 23 36 1270 1270 1270 20 1270 1270 1270 1270 36 1270 24 1270 1270 14 20 37 24 1270 17 1270 1270 1270 1270 22 1270 1270 1270 1270 21 1270 1270 1270 1270 1270 1270 1270 23 1270 20 1270 1270 1270 1270 1270 1270 1270 11 8 1270 1270 1270 0 24 33 1270 22 18
1270 1270 1270 1270 1270 1270 1270 1270 1270 21 27 1270 17 1270 1270 22 1270 1270 1270 1270 2 1270 1270 1270 22 1270 1270 24 1270 26 1270 1270 1270 16 1270 1270 1270 1270 1270 1270 1270 1270 1270 1270 1270 1270 1270 18 1270 1270 1270 1270 4 1270 1270 1270 9 22 1270 1270 1270 1270 16 1270 58 18 1270 1270 1270 1270 1270 1270 1270 1270 1270 23 26 1270 29 26 24 0 1270 26 26 24
1270 1270 1270 22 1270 1270 1270 24 33 1270 1270 1270 1270 1270 16 1270 44 22 1270 13 1270 1270 22 1270 1270 9 25 1270 42 1270 1270 1270 13 1270 1270 1270 26 1270 17 1270 1270 52 19 19 1270 31 1270 1270 1270 1270 1270 1270 1270 1270 1270 1270 1270 1270 1270 1270 60 1270 1270 1270 1270 1270 19 31 26 1270 1270 1270 1270 1270 1270 31 38 1270 1270 1270 33 1270 0 1270 1270 1270
1270 15 16 1270 1270 6 1270 1270 1270 13 13 1270 32 15 1270 15 1270 1270 1270 1270 1270 1270 1270 34 1270 1270 1270 15 1270 38 1270 1270 1270 11 1270 1270 1270 1270 1270 1270 1270 1270 1270 1270 1270 1270 1270 1270 1270 1270 1270 1270 1270 1270 1270 1270 19 16 1270 1270 1270 1270 34 1270 32 1270 1270 1270 1270 1270 18 13 1270 13 1270 1270 1270 1270 5 19 1270 26 1270 0 18 1270
1270 21 10 1270 1270 23 1270 1270 1270 1270 6 1270 21 19 1270 5 1270 1270 1270 1270 1270 1270 1270 16 1270 1270 1270 3 36 1270 1270 1270 1270 22 1270 1270 1270 36 1270 20 27 1270 1270 1270 30 1270 1270 1270 1270 1270 1270 1270 1270 1270 23 1270 1270 4 1270 1270 1270 1270 1270 35 1270 1270 1270 28 1270 1270 18 20 1270 1270 1270 31 15 1270 1270 1270 22 26 1270 18 0 1270
1270 1270 1270 14 19 1270 27 1270 1270 1270 1270 1270 16 1270 1270 1270 1270 1270 1270 34 1270 1270 1270 1270 27 24 1270 1270 1270 1270 1270 1270 20 1270 14 1270 1270 1270 25 1270 1270 1270 22 14 1270 8 1270 6 1270 1270 1270 1270 20 17 1270 1270 1270 1270 1270 25 1270 10 35 1270 1270 10 1270 1270 1270 1270 1270 1270 1270 1270 1270 6 25 1270 1270 1270 18 24 1270 1270 1270 0
EOF
